000 000 000 000 000 000 000 000 -99 -99 -99 -99 -99 000 000 -99 -99 -99 000 000 000 -99 -99 000 000 -99 -99 -99 -99 -99 -99
000 000 000 000 000 000 000 000 000 -99 -99 -99 -99 000 000 000 -99 -99 -99 000 000 -99 -99 -99 000 000 -99 -99 -99 -99 -99
000 000 000 000 000 000 000 000 000 -99 -99 -99 -99 -99 000 000 -99 -99 -99 -99 000 000 000 000 000 000 000 000 000 -99 -99
-99 000 000 000 000 000 000 000 000 000 -99 -99 -99 -99 -99 000 -99 -99 -99 -99 000 000 000 000 000 000 000 000 -99 -99 -99
000 000 000 000 000 000 000 000 000 000 -99 -99 000 -99 -99 -99 -99 -99 -99 -99 000 000 000 000 000 -99 000 000 -99 -99 -99
000 000 000 000 000 000 000 000 000 000 -99 -99 000 000 -99 000 000 -99 -99 -99 -99 000 000 000 -99 -99 -99 000 -99 -99 -99
000 000 000 000 000 000 000 000 -99 000 000 000 -99 000 000 000 000 -99 -99 -99 -99 000 000 -99 -99 -99 -99 -99 -99 -99 -99
000 000 000 000 000 000 000 -99 -99 000 000 000 -99 -99 000 000 000 000 -99 -99 000 -99 000 -99 000 -99 -99 -99 -99 -99 -99
000 000 000 000 000 000 -99 -99 000 000 000 000 000 -99 -99 000 -99 000 -99 -99 000 -99 -99 000 000 -99 -99 -99 -99 -99 -99
000 000 000 000 000 000 -99 -99 000 000 000 000 000 -99 000 000 -99 000 000 -99 000 000 -99 -99 000 000 000 000 -99 000 -99
000 000 000 000 000 000 000 000 000 000 000 000 000 -99 000 000 -99 000 -99 -99 -99 000 -99 000 000 000 000 000 -99 000 -99
000 000 000 000 000 000 000 000 000 000 000 000 000 -99 000 000 -99 000 000 -99 -99 000 -99 000 000 -99 000 000 000 -99 000
000 000 000 000 000 000 000 000 000 000 000 000 000 000 -99 -99 -99 000 000 -99 -99 000 -99 -99 000 000 000 000 000 000 000
000 000 000 000 000 000 000 000 000 000 000 000 000 -99 -99 000 -99 000 000 -99 -99 -99 -99 000 000 000 000 000 000 000 000
000 000 000 000 000 000 000 000 000 -99 -99 000 000 000 -99 000 -99 000 000 -99 -99 000 -99 000 000 000 000 000 000 000 000
000 000 -99 000 000 000 000 000 000 000 -99 -99 -99 -99 -99 000 -99 000 000 -99 -99 -99 -99 -99 000 000 000 000 000 000 000
000 -99 000 -99 000 000 000 000 000 000 -99 -99 -99 000 -99 000 000 000 000 -99 -99 -99 -99 -99 000 000 000 -99 000 000 000
000 000 -99 -99 -99 -99 000 000 000 -99 -99 -99 -99 -99 -99 -99 000 000 000 -99 -99 -99 -99 -99 000 000 -99 -99 -99 000 000
000 000 000 -99 -99 -99 000 000 000 -99 -99 -99 -99 -99 -99 000 000 000 000 -99 -99 -99 000 -99 -99 000 -99 -99 -99 000 000
000 000 000 000 -99 000 -99 000 000 -99 000 000 -99 -99 -99 000 000 000 000 -99 -99 -99 000 -99 -99 -99 -99 -99 -99 000 -99
000 000 000 000 000 000 -99 -99 -99 -99 000 000 -99 000 -99 -99 000 000 000 000 -99 000 000 -99 -99 -99 -99 -99 -99 -99 -99
000 000 000 000 000 000 000 -99 000 -99 -99 000 -99 000 000 000 000 000 000 000 000 000 000 -99 -99 -99 -99 -99 -99 -99 -99
000 000 000 000 000 000 000 000 000 -99 -99 -99 -99 000 000 000 000 000 000 000 000 000 000 -99 -99 -99 -99 -99 -99 -99 -99
000 000 000 000 000 000 000 000 000 -99 -99 -99 -99 000 000 000 000 000 000 000 000 000 000 -99 -99 -99 -99 -99 -99 -99 -99
000 000 000 000 000 000 000 000 000 000 -99 -99 -99 000 000 000 000 000 000 000 000 000 000 -99 -99 -99 -99 -99 -99 -99 000
000 000 000 000 000 000 000 000 000 000 -99 -99 -99 000 000 000 000 000 000 000 000 -99 -99 -99 -99 -99 -99 -99 -99 000 000
000 000 000 000 000 000 000 000 000 000 000 -99 -99 000 000 000 000 000 000 000 -99 000 -99 -99 -99 -99 -99 -99 -99 000 000
000 000 000 000 000 000 000 000 000 000 -99 -99 -99 -99 -99 000 000 000 000 -99 000 000 -99 -99 -99 -99 -99 -99 -99 000 000
000 000 000 000 000 000 000 000 000 000 -99 -99 -99 000 000 000 000 000 000 000 -99 000 -99 -99 -99 -99 -99 -99 -99 000 000
000 000 000 -99 000 000 000 000 000 000 -99 -99 -99 000 000 000 000 000 000 000 000 000 -99 -99 -99 -99 -99 -99 -99 -99 -99
000 000 000 -99 000 000 000 000 000 000 -99 -99 -99 000 -99 000 000 000 000 000 -99 000 -99 -99 -99 -99 -99 -99 -99 -99 -99
000 000 000 000 000 000 000 000 000 -99 -99 -99 -99 000 000 000 000 000 000 -99 000 000 000 000 000 -99 -99 -99 -99 -99 -99
000 000 000 000 000 000 000 000 000 -99 -99 -99 -99 -99 000 000 000 000 000 -99 -99 000 000 000 000 000 -99 -99 -99 -99 000
000 000 000 000 000 000 000 000 000 000 -99 -99 -99 000 000 000 000 000 -99 -99 -99 000 000 000 000 000 -99 000 000 -99 000
-99 000 000 000 000 000 000 000 000 000 000 -99 -99 000 000 000 000 -99 -99 000 000 -99 000 000 000 000 000 000 000 -99 000
000 000 000 000 000 000 000 000 000 000 000 000 000 -99 000 000 000 000 000 000 000 -99 -99 000 000 000 000 000 000 000 000
000 000 000 000 000 -99 -99 000 000 000 000 -99 000 000 -99 000 000 000 000 000 000 -99 000 000 000 000 000 000 000 -99 -99
000 -99 -99 000 000 000 -99 000 000 000 -99 000 000 000 000 000 000 000 000 -99 000 -99 000 000 000 000 -99 000 -99 -99 -99
000 -99 000 000 000 000 000 000 -99 -99 -99 000 000 000 000 000 000 000 -99 -99 000 -99 000 000 000 000 -99 000 000 -99 -99
000 -99 000 000 000 -99 -99 000 -99 -99 -99 000 000 000 000 000 000 000 -99 -99 000 -99 000 000 000 -99 000 -99 000 -99 -99
000 000 000 000 -99 -99 -99 -99 -99 -99 000 000 000 000 000 000 -99 -99 -99 000 000 000 000 000 000 000 000 -99 -99 -99 -99
000 000 -99 000 -99 -99 -99 -99 -99 -99 000 000 000 000 000 -99 -99 -99 -99 000 -99 -99 000 000 000 000 -99 -99 -99 -99 -99
-99 -99 003 003 -99 -99 -99 -99 -99 -99 000 000 000 000 -99 -99 -99 -99 -99 000 -99 -99 -99 -99 000 000 -99 -99 -99 -99 -99
-99 -99 002 002 -99 -99 -99 -99 -99 -99 -99 000 000 -99 000 000 -99 -99 000 -99 -99 -99 -99 -99 000 000 -99 -99 000 -99 -99
-99 -99 -99 -99 -99 -99 000 000 -99 -99 -99 -99 000 -99 000 000 -99 -99 000 -99 -99 000 -99 000 000 -99 -99 000 000 -99 -99
-99 -99 -99 -99 -99 -99 -99 -99 -99 -99 -99 000 000 -99 000 -99 -99 000 000 000 000 000 -99 000 000 -99 -99 000 -99 -99 -99
-99 -99 -99 -99 -99 -99 -99 -99 -99 -99 -99 000 000 -99 000 -99 -99 000 000 000 000 000 000 000 000 -99 -99 -99 -99 -99 -99
-99 -99 -99 -99 -99 -99 -99 -99 -99 -99 -99 -99 -99 -99 -99 -99 -99 000 000 000 000 000 000 000 -99 -99 -99 -99 -99 -99 -99
-99 -99 -99 -99 -99 -99 -99 -99 -99 -99 -99 -99 -99 -99 -99 -99 000 000 000 000 000 000 000 000 -99 000 000 -99 -99 -99 -99
-99 -99 -99 -99 -99 -99 -99 -99 -99 -99 -99 -99 -99 -99 -99 -99 -99 000 -99 000 000 000 -99 -99 -99 000 -99 000 -99 -99 -99
-99 -99 -99 -99 -99 -99 -99 -99 -99 -99 -99 -99 -99 -99 -99 -99 -99 -99 000 000 000 000 -99 -99 -99 -99 -99 -99 -99 -99 -99
-99 -99 -99 -99 -99 -99 -99 -99 -99 -99 -99 -99 -99 -99 -99 -99 -99 -99 000 000 000 -99 -99 -99 -99 -99 -99 -99 -99 -99 -99
-99 -99 -99 -99 -99 -99 -99 -99 -99 -99 -99 -99 -99 -99 -99 -99 -99 -99 000 000 -99 -99 -99 -99 -99 -99 -99 -99 -99 -99 -99
-99 -99 -99 -99 -99 -99 -99 -99 -99 -99 -99 -99 -99 -99 -99 -99 -99 -99 -99 -99 -99 -99 -99 -99 -99 -99 -99 -99 -99 -99 -99
-99 -99 -99 -99 -99 -99 -99 -99 -99 -99 -99 -99 -99 -99 -99 -99 -99 -99 -99 -99 -99 -99 -99 -99 -99 -99 -99 -99 -99 -99 -99
